20260
2004
283
657
686716
8641
21353
19447
4533
234689
9942
4161
18784
77772
74998
2280
18336
3619
79478
732
9557
9765
9412
2101
137976
40318
141
1023
21134
4169
882
442
523308
437
797
4080
137459
1826
100
9369
257
449
8611
8859
1079
382
1787
8485
41424
18824
8888
42669
9539
21797
8919
3964
39897
925
4238
20265
20247
384
40078
19291
2051
230
1289
137653
1610
1385
19856
9828
10035
20729
98
599
4839
4502
36890
47
1721
19347
5122
4282
48
215
171
1923
142358
80353
348
2192
1700
201
38923
3634
9248
3958
19856
606
